100
1000
265
259
258
256
253
253
250
250
247
246
241
240
232
229
228
227
226
225
225
224
216
215
213
211
209
203
202
202
199
196
196
193
185
184
181
181
181
180
177
171
169
167
164
161
155
153
151
150
148
143
141
132
130
128
127
126
125
123
119
119
113
112
103
102
101
99
97
96
95
91
90
90
86
86
85
79
79
78
77
71
71
64
60
60
59
54
49
42
38
38
32
30
28
28
26
24
20
16
16
16
